c Created with the Wolfram Language : www.wolfram.com
c 
p edge 90 199
e 11 12
e 10 13
e 5 18
e 6 18
e 8 18
e 13 18
e 5 19
e 13 19
e 14 20
e 5 22
e 11 22
e 3 23
e 3 25
e 16 25
e 19 25
e 24 25
e 7 26
e 15 26
e 7 28
e 17 28
e 21 28
e 17 29
e 13 30
e 18 30
e 27 30
e 15 32
e 18 32
e 11 33
e 3 34
e 11 34
e 16 34
e 8 35
e 18 35
e 27 35
e 11 36
e 15 36
e 2 37
e 7 37
e 28 38
e 28 40
e 33 40
e 36 40
e 9 41
e 4 42
e 5 43
e 39 43
e 16 44
e 11 45
e 41 45
e 1 46
e 4 46
e 5 46
e 6 46
e 19 46
e 26 46
e 28 46
e 6 47
e 35 47
e 28 48
e 37 48
e 46 48
e 8 49
e 9 49
e 35 49
e 39 49
e 36 50
e 42 50
e 30 51
e 46 51
e 4 52
e 34 53
e 12 54
e 39 54
e 47 54
e 7 55
e 26 55
e 22 56
e 26 56
e 28 56
e 37 56
e 38 56
e 42 56
e 43 56
e 48 56
e 23 57
e 25 57
e 27 57
e 46 57
e 31 58
e 10 59
e 26 59
e 37 59
e 12 60
e 38 60
e 49 60
e 48 61
e 26 62
e 30 62
e 37 62
e 18 63
e 27 63
e 38 63
e 44 63
e 13 64
e 53 64
e 6 65
e 39 65
e 12 66
e 58 66
e 10 67
e 54 68
e 13 69
e 43 69
e 60 69
e 11 70
e 23 70
e 29 70
e 37 70
e 58 70
e 10 71
e 12 71
e 21 71
e 3 72
e 23 72
e 4 73
e 24 73
e 26 73
e 33 73
e 35 73
e 30 74
e 37 74
e 51 74
e 56 74
e 72 74
e 18 75
e 54 75
e 63 75
e 13 76
e 14 76
e 19 76
e 27 76
e 32 76
e 50 76
e 53 76
e 58 76
e 62 76
e 5 77
e 51 77
e 32 78
e 65 78
e 8 79
e 11 79
e 30 79
e 76 79
e 11 80
e 33 80
e 51 80
e 60 80
e 63 80
e 69 80
e 72 80
e 79 80
e 12 81
e 16 81
e 27 81
e 50 81
e 75 81
e 3 82
e 13 82
e 36 82
e 39 82
e 42 82
e 52 82
e 67 82
e 71 82
e 79 82
e 9 83
e 56 83
e 77 83
e 20 84
e 64 85
e 75 85
e 32 86
e 62 86
e 74 86
e 28 87
e 33 87
e 51 87
e 67 87
e 68 87
e 85 87
e 8 88
e 86 88
e 2 89
e 46 89
e 69 89
e 84 89
e 88 89
e 26 90
